n_res = 4;
rc = [ 56, 42, 44, 37 ];
n_tasks = 90;
d = [ 2, 9, 1, 6, 6, 5, 7, 2, 10, 8, 2, 5, 9, 9, 7, 2, 3, 10, 2, 8, 8, 7, 3, 7, 1, 1, 3, 3, 10, 3, 8, 6, 2, 3, 3, 10, 8, 4, 7, 5, 7, 1, 10, 7, 5, 2, 2, 9, 9, 7, 8, 5, 6, 5, 9, 2, 1, 8, 3, 3, 4, 3, 2, 10, 3, 8, 3, 2, 1, 9, 3, 5, 9, 10, 5, 8, 10, 5, 5, 8, 1, 8, 1, 3, 7, 9, 3, 9, 4, 4 ];
rr = [| 1, 6, 7, 9, 10, 0, 10, 7, 0, 10, 1, 0, 3, 8, 3, 6, 9, 8, 0, 3, 0, 10, 6, 7, 5, 7, 8, 8, 0, 9, 2, 9, 9, 6, 5, 0, 4, 10, 5, 6, 10, 5, 0, 0, 3, 0, 10, 4, 9, 2, 10, 0, 0, 9, 2, 2, 1, 8, 10, 5, 0, 6, 5, 1, 5, 2, 1, 7, 2, 5, 10, 9, 10, 9, 2, 0, 6, 10, 9, 7, 6, 8, 6, 1, 2, 0, 4, 0, 1, 2
      | 4, 4, 5, 7, 0, 0, 0, 2, 4, 3, 8, 0, 3, 1, 4, 0, 4, 9, 0, 0, 0, 8, 8, 2, 0, 6, 5, 3, 3, 9, 9, 0, 6, 4, 0, 8, 7, 4, 0, 0, 6, 6, 9, 4, 0, 4, 0, 0, 7, 10, 4, 2, 10, 1, 9, 9, 7, 0, 7, 7, 8, 2, 4, 10, 3, 10, 0, 0, 6, 8, 6, 3, 0, 9, 6, 5, 8, 8, 0, 9, 10, 3, 1, 0, 9, 7, 8, 0, 10, 5
      | 7, 8, 0, 3, 1, 8, 0, 5, 10, 4, 1, 8, 3, 5, 9, 5, 1, 7, 0, 0, 7, 5, 0, 1, 4, 8, 9, 4, 1, 5, 9, 0, 9, 8, 2, 10, 4, 4, 6, 2, 0, 0, 0, 8, 9, 2, 10, 7, 0, 7, 8, 0, 1, 2, 9, 8, 0, 10, 0, 6, 5, 0, 0, 0, 0, 9, 10, 0, 8, 0, 8, 3, 3, 10, 6, 9, 5, 10, 0, 0, 3, 1, 2, 0, 9, 0, 8, 4, 0, 7
      | 4, 6, 7, 1, 6, 9, 5, 0, 0, 2, 6, 7, 2, 1, 10, 3, 0, 2, 6, 4, 9, 1, 3, 5, 0, 0, 7, 0, 7, 5, 9, 4, 9, 6, 0, 8, 5, 0, 0, 7, 0, 1, 7, 1, 0, 1, 10, 2, 0, 0, 4, 10, 0, 1, 4, 6, 0, 1, 2, 4, 3, 0, 10, 5, 4, 0, 0, 0, 0, 4, 0, 6, 0, 8, 2, 5, 5, 7, 5, 3, 0, 0, 6, 9, 0, 2, 9, 0, 2, 10 |];
suc = [ { 4, 13, 15 },
       { 9, 26, 32 },
       { 5, 46, 74 },
       { 20, 29, 37 },
       { 6, 7, 10 },
       { 8, 59, 86 },
       { 19, 55 },
       { 22, 52, 55 },
       { 63, 65, 90 },
       { 11, 12, 48 },
       { 14, 33, 52 },
       { 17, 24 },
       { 30, 35, 59 },
       { 21, 30, 47 },
       { 16, 18, 19 },
       { 23, 25, 31 },
       { 28, 66, 82 },
       { 38, 40, 48 },
       { 56 },
       { 53, 60, 71 },
       { 38, 85 },
       { 29, 36, 64 },
       { 38, 51 },
       { 42 },
       { 44, 49, 52 },
       { 27, 34, 37 },
       { 87 },
       { 53, 71 },
       { 42, 89 },
       { 31, 43, 56 },
       { 55, 64 },
       { 49 },
       { 47, 50, 54 },
       { 40, 43, 48 },
       { 57, 74, 88 },
       { 39, 44, 60 },
       { 41, 45, 61 },
       { 83 },
       { 45, 68 },
       { 41, 54, 58 },
       { 49, 51 },
       { 44, 62 },
       { 45, 57, 66 },
       { 70 },
       { 58, 71 },
       { 50, 51, 56 },
       { 68, 69, 79 },
       { 53, 65, 68 },
       { 50, 66, 74 },
       { 57, 62, 72 },
       { 59, 63, 64 },
       { 81 },
       { 76, 85 },
       { 60, 77 },
       { 58, 62, 76 },
       { 61, 75, 77 },
       { 63, 79 },
       { 90 },
       { 67 },
       { 61, 67 },
       { 73, 80 },
       { 65, 69, 73 },
       { 78, 82 },
       { 69 },
       { 87 },
       { 67, 78, 81 },
       { 70, 73, 75 },
       { 72 },
       { 70 },
       { 87 },
       { 72, 78, 81 },
       { 75 },
       { 90 },
       { 77, 80 },
       { 76, 80 },
       { 88 },
       { 79, 82 },
       { 84 },
       { 86 },
       { 83 },
       { 83 },
       { 84, 85 },
       { 84 },
       { 89 },
       { 86 },
       { 89 },
       { 88 },
       {  },
       {  },
       {  } ];
